5	15
5 63	6 94	10 60	3 34	11 89	9 35	14 24	7 80	2 81	13 68	12 68	1 68	4 55	0 70	8 33
3 28	4 25	6 76	11 8	8 95	0 9	10 20	2 51	12 33	1 28	14 34	7 68	13 59	9 73	5 35
11 29	3 83	1 98	5 43	6 80	0 33	12 97	10 30	9 75	7 5	14 71	4 4	8 99	13 76	2 28
9 94	6 88	2 17	14 38	8 53	7 54	4 61	0 20	13 50	12 33	11 8	3 66	5 34	10 25	1 12
13 82	14 76	5 41	8 70	4 92	6 78	3 4	2 69	12 11	7 73	10 69	0 57	11 1	9 91	1 63
